experiment/data/hgs-res/Vrp-Set-A-n69/Vrp-Set-A-n69-hgs/0.hgs1.vrp
NAME : 0
COMMENT : CVRP Instance
TYPE : CVRP
DIMENSION : 69
EDGE_WEIGHT_TYPE : EUC_2D
CAPACITY : 100
NODE_COORD_SECTION
1	59.0	44.0
2	9.0	23.0
3	84.0	68.0
4	36.0	93.0
5	87.0	9.0
6	34.0	16.0
7	40.0	98.0
8	72.0	43.0
9	0.0	60.0
10	64.0	90.0
11	11.0	8.0
12	46.0	7.0
13	33.0	54.0
14	23.0	84.0
15	67.0	18.0
16	34.0	93.0
17	19.0	25.0
18	14.0	9.0
19	70.0	64.0
20	58.0	50.0
21	5.0	78.0
22	95.0	39.0
23	38.0	54.0
24	50.0	73.0
25	48.0	46.0
26	64.0	4.0
27	39.0	28.0
28	79.0	30.0
29	61.0	36.0
30	28.0	50.0
31	51.0	91.0
32	68.0	59.0
33	14.0	9.0
34	94.0	87.0
35	68.0	29.0
36	12.0	91.0
37	2.0	22.0
38	25.0	16.0
39	11.0	57.0
40	3.0	51.0
41	13.0	52.0
42	9.0	76.0
43	58.0	18.0
44	40.0	39.0
45	32.0	89.0
46	9.0	92.0
47	36.0	14.0
48	82.0	13.0
49	10.0	25.0
50	96.0	97.0
51	20.0	21.0
52	40.0	91.0
53	33.0	31.0
54	72.0	74.0
55	41.0	24.0
56	90.0	20.0
57	4.0	44.0
58	54.0	22.0
59	43.0	59.0
60	3.0	70.0
61	94.0	16.0
62	94.0	54.0
63	14.0	40.0
64	37.0	0.0
65	88.0	55.0
66	80.0	25.0
67	37.0	64.0
68	87.0	47.0
69	18.0	68.0
DEMAND_SECTION
1	0
2	2
3	1
4	6
5	9
6	16
7	5
8	3
9	9
10	12
11	1
12	1
13	18
14	10
15	5
16	5
17	9
18	16
19	12
20	6
21	6
22	20
23	23
24	39
25	17
26	8
27	2
28	13
29	17
30	3
31	2
32	7
33	23
34	10
35	7
36	12
37	20
38	13
39	21
40	25
41	5
42	4
43	13
44	12
45	23
46	19
47	10
48	7
49	15
50	5
51	15
52	13
53	30
54	15
55	7
56	9
57	23
58	8
59	5
60	8
61	25
62	12
63	25
64	24
65	8
66	22
67	7
68	24
69	18
DEPOT_SECTION
1
-1
EOF
