experiment/data/hgs-res/Vrp-Set-A-n69/Vrp-Set-A-n69-hgs/0.hgs1.log
=========== Algorithm Parameters =================
---- nbGranular        is set to 20
---- mu                is set to 25
---- lambda            is set to 40
---- nbElite           is set to 4
---- nbClose           is set to 5
---- targetFeasible    is set to 0.2
---- seed              is set to 1234
---- nbIter            is set to 20000
---- timeLimit         is set to 0
---- useSwapStar       is set to 1
==================================================
----- READING INSTANCE: baseline_results/cvrp_hgs/Vrp-Set-A-n69/Vrp-Set-A-n69-hgs/0.hgs1.vrp
----- FLEET SIZE WAS NOT SPECIFIED: DEFAULT INITIALIZATION TO 14 VEHICLES
----- INSTANCE SUCCESSFULLY LOADED WITH 68 CLIENTS AND 14 VEHICLES
----- BUILDING INITIAL POPULATION
----- STARTING GENETIC ALGORITHM
It      0      2 | T(s) 0.07 | Feas 39 1174.51 1188.79 | Inf 39 1171.42 1188.76 | Div 0.43 0.43 | Feas 0.61 1.00 | Pen 2.68 0.85
It    500    405 | T(s) 0.28 | Feas 57 1167.56 1172.34 | Inf 39 1161.62 1171.50 | Div 0.35 0.38 | Feas 0.14 1.00 | Pen 2.37 0.38
It   1000    905 | T(s) 0.48 | Feas 34 1167.56 1171.92 | Inf 59 1160.99 1165.07 | Div 0.39 0.27 | Feas 0.29 1.00 | Pen 2.06 0.17
It   1500   1405 | T(s) 0.68 | Feas 32 1167.56 1171.84 | Inf 47 1161.07 1164.72 | Div 0.38 0.29 | Feas 0.31 1.00 | Pen 2.10 0.10
It   2000   1905 | T(s) 0.88 | Feas 42 1167.56 1171.64 | Inf 30 1161.24 1166.19 | Div 0.36 0.35 | Feas 0.26 1.00 | Pen 2.18 0.10
It   2500   2405 | T(s) 1.08 | Feas 29 1167.56 1172.93 | Inf 43 1161.33 1165.41 | Div 0.41 0.31 | Feas 0.25 1.00 | Pen 2.23 0.10
It   3000    499 | T(s) 1.28 | Feas 28 1165.99 1174.44 | Inf 43 1160.74 1165.15 | Div 0.43 0.32 | Feas 0.34 1.00 | Pen 1.93 0.10
It   3500    999 | T(s) 1.49 | Feas 63 1165.99 1168.86 | Inf 45 1160.81 1164.22 | Div 0.30 0.30 | Feas 0.28 1.00 | Pen 1.97 0.10
It   4000   1499 | T(s) 1.69 | Feas 54 1165.99 1169.60 | Inf 34 1160.89 1164.93 | Div 0.31 0.33 | Feas 0.17 1.00 | Pen 2.01 0.10
It   4500   1999 | T(s) 1.90 | Feas 34 1165.99 1169.60 | Inf 30 1161.79 1167.21 | Div 0.37 0.36 | Feas 0.21 1.00 | Pen 2.46 0.10
It   5000   2499 | T(s) 2.09 | Feas 27 1165.99 1174.71 | Inf 50 1161.89 1165.26 | Div 0.44 0.30 | Feas 0.21 1.00 | Pen 2.51 0.10
It   5500   2999 | T(s) 2.30 | Feas 41 1165.99 1169.76 | Inf 36 1162.09 1166.51 | Div 0.37 0.34 | Feas 0.15 1.00 | Pen 2.61 0.10
It   6000   3499 | T(s) 2.50 | Feas 40 1165.99 1169.95 | Inf 61 1161.40 1164.89 | Div 0.36 0.28 | Feas 0.20 1.00 | Pen 2.26 0.10
It   6500   3999 | T(s) 2.70 | Feas 25 1165.99 1174.09 | Inf 35 1160.80 1164.85 | Div 0.45 0.33 | Feas 0.21 1.00 | Pen 1.96 0.10
It   7000   4499 | T(s) 2.90 | Feas 33 1165.99 1172.76 | Inf 59 1160.96 1164.06 | Div 0.40 0.25 | Feas 0.28 1.00 | Pen 2.04 0.10
It   7500   4999 | T(s) 3.11 | Feas 35 1165.99 1172.95 | Inf 61 1161.87 1166.34 | Div 0.41 0.30 | Feas 0.12 1.00 | Pen 2.50 0.10
It   8000   5499 | T(s) 3.31 | Feas 33 1165.99 1171.63 | Inf 57 1161.97 1165.64 | Div 0.40 0.28 | Feas 0.14 1.00 | Pen 2.55 0.10
It   8500   5999 | T(s) 3.52 | Feas 55 1165.99 1169.78 | Inf 39 1161.21 1165.15 | Div 0.34 0.33 | Feas 0.19 1.00 | Pen 2.16 0.10
It   9000   6499 | T(s) 3.71 | Feas 49 1165.99 1171.15 | Inf 42 1162.07 1167.03 | Div 0.37 0.34 | Feas 0.16 1.00 | Pen 2.60 0.10
It   9500   6999 | T(s) 3.91 | Feas 44 1165.99 1169.75 | Inf 33 1161.38 1166.33 | Div 0.36 0.35 | Feas 0.17 1.00 | Pen 2.25 0.10
It  10000   7499 | T(s) 4.11 | Feas 49 1165.99 1170.01 | Inf 28 1161.38 1169.04 | Div 0.34 0.40 | Feas 0.22 1.00 | Pen 2.25 0.10
It  10500   7999 | T(s) 4.31 | Feas 55 1165.99 1170.16 | Inf 63 1161.38 1164.04 | Div 0.34 0.25 | Feas 0.19 1.00 | Pen 2.25 0.10
It  11000   8499 | T(s) 4.51 | Feas 40 1165.99 1170.20 | Inf 52 1161.56 1165.07 | Div 0.37 0.29 | Feas 0.14 1.00 | Pen 2.34 0.10
It  11500   8999 | T(s) 4.70 | Feas 38 1165.99 1170.49 | Inf 61 1160.94 1164.57 | Div 0.37 0.28 | Feas 0.31 1.00 | Pen 2.03 0.10
It  12000   9499 | T(s) 4.90 | Feas 39 1165.99 1171.57 | Inf 58 1161.95 1165.07 | Div 0.38 0.25 | Feas 0.09 1.00 | Pen 2.54 0.10
It  12500   9999 | T(s) 5.13 | Feas 35 1165.99 1169.83 | Inf 37 1161.28 1164.35 | Div 0.38 0.30 | Feas 0.19 1.00 | Pen 2.20 0.10
It  13000  10499 | T(s) 5.33 | Feas 54 1165.99 1168.75 | Inf 65 1161.36 1163.90 | Div 0.32 0.24 | Feas 0.21 1.00 | Pen 2.24 0.10
It  13500  10999 | T(s) 5.52 | Feas 58 1165.99 1169.01 | Inf 58 1161.45 1164.86 | Div 0.32 0.25 | Feas 0.13 1.00 | Pen 2.29 0.10
It  14000  11499 | T(s) 5.72 | Feas 28 1165.99 1174.21 | Inf 25 1161.64 1172.37 | Div 0.43 0.41 | Feas 0.14 1.00 | Pen 2.38 0.10
It  14500  11999 | T(s) 5.91 | Feas 44 1165.99 1171.56 | Inf 35 1161.00 1165.33 | Div 0.38 0.32 | Feas 0.23 1.00 | Pen 2.06 0.10
It  15000  12499 | T(s) 6.12 | Feas 32 1165.99 1171.26 | Inf 46 1161.17 1164.74 | Div 0.39 0.28 | Feas 0.34 1.00 | Pen 2.15 0.10
It  15500  12999 | T(s) 6.32 | Feas 64 1165.99 1169.72 | Inf 64 1160.60 1163.34 | Div 0.32 0.24 | Feas 0.26 1.00 | Pen 1.86 0.10
It  16000  13499 | T(s) 6.52 | Feas 56 1165.99 1170.70 | Inf 62 1161.35 1164.62 | Div 0.36 0.26 | Feas 0.24 1.00 | Pen 2.23 0.10
It  16500  13999 | T(s) 6.72 | Feas 60 1165.99 1169.52 | Inf 50 1161.43 1166.04 | Div 0.33 0.32 | Feas 0.26 1.00 | Pen 2.28 0.10
It  17000  14499 | T(s) 6.91 | Feas 65 1165.99 1168.95 | Inf 58 1160.75 1164.70 | Div 0.31 0.28 | Feas 0.29 1.00 | Pen 1.94 0.10
It  17500  14999 | T(s) 7.11 | Feas 60 1165.99 1169.66 | Inf 53 1160.83 1164.40 | Div 0.32 0.27 | Feas 0.18 1.00 | Pen 1.98 0.10
It  18000  15499 | T(s) 7.31 | Feas 55 1165.99 1169.55 | Inf 55 1161.71 1164.96 | Div 0.34 0.27 | Feas 0.14 1.00 | Pen 2.42 0.10
It  18500  15999 | T(s) 7.50 | Feas 29 1165.99 1170.67 | Inf 39 1161.91 1166.18 | Div 0.41 0.32 | Feas 0.15 1.00 | Pen 2.52 0.10
It  19000  16499 | T(s) 7.70 | Feas 51 1165.99 1169.48 | Inf 56 1161.24 1164.49 | Div 0.35 0.28 | Feas 0.24 1.00 | Pen 2.18 0.10
It  19500  16999 | T(s) 7.90 | Feas 64 1165.99 1170.07 | Inf 58 1162.22 1166.16 | Div 0.33 0.29 | Feas 0.15 1.00 | Pen 2.67 0.10
It  20000  17499 | T(s) 8.10 | Feas 55 1165.99 1168.53 | Inf 32 1161.51 1166.58 | Div 0.30 0.37 | Feas 0.23 1.00 | Pen 2.31 0.10
It  20500  17999 | T(s) 8.30 | Feas 31 1165.99 1171.50 | Inf 53 1160.89 1164.61 | Div 0.40 0.29 | Feas 0.27 1.00 | Pen 2.01 0.10
It  21000  18499 | T(s) 8.50 | Feas 35 1165.99 1170.53 | Inf 43 1160.97 1164.28 | Div 0.37 0.29 | Feas 0.16 1.00 | Pen 2.05 0.10
It  21500  18999 | T(s) 8.70 | Feas 35 1165.99 1169.68 | Inf 65 1161.14 1164.40 | Div 0.38 0.27 | Feas 0.32 1.00 | Pen 2.13 0.10
It  22000  19499 | T(s) 8.89 | Feas 36 1165.99 1170.41 | Inf 53 1161.22 1164.56 | Div 0.38 0.28 | Feas 0.19 1.00 | Pen 2.17 0.10
It  22500  19999 | T(s) 9.09 | Feas 45 1165.99 1169.86 | Inf 44 1161.31 1165.29 | Div 0.35 0.32 | Feas 0.17 1.00 | Pen 2.22 0.10
----- GENETIC ALGORITHM FINISHED AFTER 22503 ITERATIONS. TIME SPENT: 9.08966
----- WRITING BEST SOLUTION IN : baseline_results/cvrp_hgs/Vrp-Set-A-n69/Vrp-Set-A-n69-hgs/0.hgs1.tour
