experiment/data/hgs-res/Vrp-Set-A-n69/Vrp-Set-A-n69-hgs/0.hgs1.tour
Route #1: 16 48 1 36 56 62
Route #2: 52 50 10 32 17 37 26
Route #3: 57 42 25 11 63 46 5 54 43
Route #4: 27 65 55 60 4 47 14 34
Route #5: 28 7 67 21 61 64 31
Route #6: 23 30 9 49 33 2 53 18
Route #7: 51 6 3 15 44 35 45 13 66
Route #8: 19 58 12 22 24
Route #9: 68 41 20 59 8 39 38 40 29
Cost 1165.99
